
Gurobi 12.0.1 (win64, C++) logging started Thu Apr 17 22:35:17 2025

Set parameter Username
Academic license - for non-commercial use only - expires 2026-01-06
Set parameter Threads to value 8
Set parameter LazyConstraints to value 1
Set parameter PreCrush to value 1
Set parameter Seed to value 10
Set parameter Cuts to value -1
Set parameter TimeLimit to value 28800
Set parameter NumericFocus to value 0
Set parameter SolutionLimit to value 10000
Gurobi Optimizer version 12.0.1 build v12.0.1rc0 (win64 - Windows Server 2022.0 (20348.2))

CPU model: AMD EPYC 7513 32-Core Processor, instruction set [SSE2|AVX|AVX2]
Thread count: 18 physical cores, 18 logical processors, using up to 8 threads

Non-default parameters:
SolutionLimit  10000
TimeLimit  28800
PreCrush  1
Seed  10
Threads  8
LazyConstraints  1

Optimize a model with 277 rows, 529 columns and 1518 nonzeros
Model fingerprint: 0x4d139937
Variable types: 0 continuous, 529 integer (529 binary)
Coefficient statistics:
  Matrix range     [1e+00, 1e+00]
  Objective range  [4e+00, 1e+02]
  Bounds range     [1e+00, 1e+00]
  RHS range        [1e+00, 6e+00]

User MIP start produced solution with objective 767.927 (0.00s)
Loaded user MIP start with objective 767.927

Presolve removed 10 rows and 43 columns
Presolve time: 0.00s
Presolved: 267 rows, 486 columns, 1414 nonzeros
Variable types: 0 continuous, 486 integer (486 binary)

Root relaxation: objective 5.644680e+02, 75 iterations, 0.00 seconds (0.00 work units)

    Nodes    |    Current Node    |     Objective Bounds      |     Work
 Expl Unexpl |  Obj  Depth IntInf | Incumbent    BestBd   Gap | It/Node Time

     0     0  564.46796    0    -  767.92663  564.46796  26.5%     -    0s
     0     0  567.33490    0    -  767.92663  567.33490  26.1%     -    0s
     0     0  591.68385    0    -  767.92663  591.68385  23.0%     -    0s
     0     0  592.36949    0    -  767.92663  592.36949  22.9%     -    0s
     0     0  596.11574    0   10  767.92663  596.11574  22.4%     -    0s
     0     0  602.86023    0    -  767.92663  602.86023  21.5%     -    0s
     0     0  614.00286    0    -  767.92663  614.00286  20.0%     -    0s
     0     0  617.18671    0    -  767.92663  617.18671  19.6%     -    0s
     0     0  622.58121    0    -  767.92663  622.58121  18.9%     -    0s
     0     0  623.12162    0    -  767.92663  623.12162  18.9%     -    0s
     0     0  623.47608    0   34  767.92663  623.47608  18.8%     -    0s
     0     0  625.57242    0    -  767.92663  625.57242  18.5%     -    0s
     0     0  630.87004    0    -  767.92663  630.87004  17.8%     -    0s
     0     0  631.20152    0    -  767.92663  631.20152  17.8%     -    0s
     0     0  631.38191    0    -  767.92663  631.38191  17.8%     -    0s
     0     0  631.41820    0   23  767.92663  631.41820  17.8%     -    0s
     0     0  631.81876    0   36  767.92663  631.81876  17.7%     -    0s
     0     0  631.81876    0   14  767.92663  631.81876  17.7%     -    0s
     0     2  639.58569    0   14  767.92663  639.58569  16.7%     -    0s
   618   613  704.92044   15   20  767.92663  647.55536  15.7%  16.3    5s
H  895   718                     732.2905423  647.55536  11.6%  14.3    9s
  1219   897  701.45692   12   53  732.29054  649.30326  11.3%  14.0   10s
  1750  1189  724.17000   23   43  732.29054  652.03713  11.0%  14.2   16s
H 2620  1469                     730.6578586  669.75502  8.34%  14.9   19s
  2686  1471  707.21432   13  200  730.65786  679.10482  7.06%  14.8   20s
  3042  1610     cutoff   31       730.65786  687.63709  5.89%  16.1   25s
  3405  1720  706.68089   26  253  730.65786  690.43673  5.50%  16.7   32s
  4092  1891  730.32136   28  122  730.65786  693.89501  5.03%  17.4   35s
  7933  2305  730.40361   18   64  730.65786  704.91206  3.52%  19.3   40s
 17954  3428  729.40393   28  230  730.65786  717.27585  1.83%  20.6   45s

Cutting planes:
  Gomory: 6
  Clique: 2
  Flow cover: 2
  Inf proof: 1
  Zero half: 12
  Relax-and-lift: 1
  Lazy constraints: 760

Explored 30645 nodes (608689 simplex iterations) in 49.51 seconds (18.07 work units)
Thread count was 8 (of 18 available processors)

Solution count 3: 730.658 732.291 767.927 

Optimal solution found (tolerance 1.00e-04)
Best objective 7.306578586103e+02, best bound 7.306578586103e+02, gap 0.0000%

User-callback calls 62372, time in user-callback 36.64 sec
### START EXACT APPROACH ###
ProblemVariant: 5
### START PREPROCESSING ###
## Start infeasible path procedure ## 
Deleted arcs: 20
Infeasible tail paths: 0
Infeasible 2-node combinations: 10
## Start extended infeasible path procedure ##
Deleted arcs: 20
Infeasible tail paths: 0
Infeasible 2-node combinations: 10
## Start start solution procedure ##
Start solution with 5 Vehicles and total costs 767.927 in 0.519336 s.
### END PREPROCESSING ###
Route 0 0-7-4-5-9-13-11-0 : weight util 0.605556 | volume util 0.776267 | infeasible with packing heuristic | feasible with CP model
Route 1 0-12-6-1-2-3-15-16-0 : weight util 0.220889 | volume util 0.597911 | feasible with packing heuristic | feasible with CP model
Route 2 0-14-17-22-20-19-0 : weight util 0.427778 | volume util 0.730244 | infeasible with packing heuristic | feasible with CP model
Route 3 0-18-0 : weight util 0.026667 | volume util 0.258400 | feasible with packing heuristic | feasible with CP model
Route 4 0-21-8-10-0 : weight util 0.983333 | volume util 0.467044 | feasible with packing heuristic | feasible with CP model
